[[9, 25, 55, 18, 50, 32, 44, 3, 51, 24, 49, 16, 33, 63, 23, 56, 41, 43, 42, 64], [22, 73, 62, 28, 2, 30, 74, 48, 61, 21, 47, 69, 36, 71, 60, 70, 20, 37, 5, 15, 57, 13, 54, 52, 27, 29, 45], [4, 68, 6, 75, 76, 26, 67, 34, 46, 7, 8, 35, 19, 53, 14, 59, 11, 66, 65, 38, 10, 31, 58, 72, 39, 12, 17, 40]]